Maximize
  - 3.8168336325066 edge_0_1_0_0 - 3.26506 edge_0_2_0_0
   - 0.1172138729106 edge_0_3_0_0 - 1.2285279596088 edge_0_8_0_0
   - 1.76684510184 edge_0_9_0_0 - 2.691211201875 edge_0_10_0_0
   - 1.6074189264616 edge_0_12_0_0 - 1.7248301960494 edge_0_19_0_0
   - 1.6832244085006 edge_0_23_0_0 - 0.47361975268928 edge_1_2_0_0
   - 0.5444487112942458 edge_1_3_0_0 - 0.0338634860143683 edge_1_8_0_0
   + 0.1906174903712 edge_2_1_0_0 + 0.7686968181170101 edge_2_3_0_0
   + 1.7974690293662 edge_2_25_0_0 + 2.083192079703897 edge_3_1_0_0
   + 2.1200791776687 edge_3_2_0_0 + 0.8439289702054239 edge_3_4_0_0
   + 2.293374087657762 edge_3_6_0_0 + 0.5019580366834048 edge_3_7_0_0
   + 0.8751199498562348 edge_3_9_0_0 + 2.657158499501088 edge_3_11_0_0
   + 2.855133321135036 edge_3_12_0_0 + 0.8617761855825722 edge_3_13_0_0
   + 0.6621254589283393 edge_3_16_0_0 + 2.249580241901838 edge_3_18_0_0
   + 2.25881334807915 edge_3_19_0_0 - 0.2084745119126183 edge_3_20_0_0
   - 0.722381058547831 edge_3_21_0_0 + 0.2043590083848625 edge_3_22_0_0
   - 0.4397278559131449 edge_3_23_0_0 + 0.11182515459363 edge_3_24_0_0
   + 6.276798504941876 edge_3_25_0_0 + 1.428945816657636 edge_4_6_0_0
   + 1.138126934511767 edge_4_7_0_0 - 0.0286930125640791 edge_4_9_0_0
   - 0.0237640754807876 edge_4_11_0_0 - 0.1104805695489844 edge_4_12_0_0
   - 0.5981939161755589 edge_4_14_0_0 - 0.9665777984852738 edge_6_1_0_0
   - 1.1573661687 edge_6_2_0_0 + 2.811526857451065 edge_6_4_0_0
   + 0.9308895923651709 edge_6_7_0_0 + 1.157439412371821 edge_6_9_0_0
   + 1.192256662644501 edge_6_11_0_0 + 0.7621506110061956 edge_6_12_0_0
   + 0.4021963790999541 edge_6_13_0_0 + 0.4768545324538493 edge_6_16_0_0
   + 0.0837993044242392 edge_6_18_0_0 - 0.1231140214903091 edge_6_19_0_0
   - 0.62067108962915 edge_6_24_0_0 + 2.462210240839752 edge_6_25_0_0
   + 0.5206656707359549 edge_7_6_0_0 + 0.3325063109030623 edge_7_9_0_0
   + 0.1360514332051835 edge_7_11_0_0 - 0.1267995659837963 edge_7_12_0_0
   - 0.4304542850814453 edge_7_13_0_0 - 1.169365271667618 edge_7_14_0_0
   + 0.1108747012829438 edge_8_1_0_0 + 0.5299349470080236 edge_8_9_0_0
   + 0.4774549993278808 edge_8_10_0_0 + 0.3756579039874722 edge_8_18_0_0
   - 0.0868884016884873 edge_8_23_0_0 - 0.1607604077894735 edge_8_24_0_0
   + 0.2597752483376761 edge_9_1_0_0 - 0.8170103970783001 edge_9_2_0_0
   + 0.7434939524944518 edge_9_4_0_0 + 0.1878288213403056 edge_9_6_0_0
   + 1.453603760200959 edge_9_7_0_0 + 0.7017244889926897 edge_9_8_0_0
   + 0.6411920282982924 edge_9_10_0_0 + 0.4474899565211288 edge_9_11_0_0
   + 0.3068704602748726 edge_9_12_0_0 + 0.295126790150643 edge_9_13_0_0
   + 0.1772347830641713 edge_9_16_0_0 + 0.625909126418745 edge_9_18_0_0
   - 0.2548411760105136 edge_9_19_0_0 - 0.0639770801684081 edge_9_20_0_0
   - 0.063713791345085 edge_9_23_0_0 - 0.35154887528295 edge_9_24_0_0
   + 1.073610496735519 edge_9_25_0_0 - 0.2084467292215729 edge_10_8_0_0
   - 0.2877941898317267 edge_10_9_0_0 - 0.1307517066027671 edge_10_18_0_0
   - 0.810111105710361 edge_11_4_0_0 - 0.3132811660702984 edge_11_7_0_0
   - 0.2585008861767756 edge_11_9_0_0 + 0.05132422796773 edge_11_12_0_0
   - 0.7270631770275456 edge_12_1_0_0 - 1.1911743834991 edge_12_2_0_0
   - 1.824960677520254 edge_12_3_0_0 - 1.466800784728807 edge_12_4_0_0
   - 0.6816517521184713 edge_12_6_0_0 - 0.7747195504981785 edge_12_7_0_0
   - 0.2915514957642003 edge_12_9_0_0 - 0.00125774549017545 edge_12_11_0_0
   + 2.452975657888621 edge_12_13_0_0 + 1.129922761571391 edge_12_14_0_0
   + 2.126666700544436 edge_12_16_0_0 + 1.998579245288989 edge_12_18_0_0
   + 2.029290085371998 edge_12_19_0_0 + 0.7341322631064922 edge_12_20_0_0
   + 0.2766513133092532 edge_12_21_0_0 + 0.0339449562836539 edge_12_22_0_0
   + 0.3285165748236805 edge_12_23_0_0 + 0.74829618970834 edge_12_24_0_0
   + 3.604850793140521 edge_12_25_0_0 - 1.2037160071112 edge_13_3_0_0
   - 0.6986479724353112 edge_13_4_0_0 - 1.373246718909333 edge_13_6_0_0
   + 0.00339295389046395 edge_13_7_0_0 - 0.3292909820535752 edge_13_9_0_0
   - 0.7970714682631618 edge_13_11_0_0 - 0.0654495836937637 edge_13_12_0_0
   + 0.6349870487693836 edge_13_14_0_0 + 2.152740473659273 edge_13_16_0_0
   + 0.9423409274353481 edge_13_18_0_0 + 0.5147139016510898 edge_13_19_0_0
   + 0.2922818636807699 edge_13_20_0_0 - 0.2232969975771753 edge_13_21_0_0
   - 0.2066141300786106 edge_13_22_0_0 - 0.1869967662538099 edge_13_23_0_0
   + 0.088049621635767 edge_13_24_0_0 + 2.068347042260494 edge_13_25_0_0
   + 1.010670203232382 edge_14_16_0_0 + 0.5062701911719558 edge_14_18_0_0
   + 0.5550252740237903 edge_14_19_0_0 - 0.4952565053702213 edge_14_21_0_0
   - 0.6880217743113205 edge_16_4_0_0 - 0.6217936633836909 edge_16_7_0_0
   - 0.6959729255299574 edge_16_11_0_0 + 0.2472410564563839 edge_16_13_0_0
   + 2.870285807945663 edge_16_14_0_0 + 0.7705915293956084 edge_16_18_0_0
   + 0.6482821939699601 edge_16_19_0_0 + 0.6194250056162917 edge_16_20_0_0
   - 0.210264356956404 edge_16_21_0_0 - 0.2598537289403874 edge_16_22_0_0
   + 0.2705832536235936 edge_16_23_0_0 + 0.16937772123712 edge_16_24_0_0
   + 1.654424737842159 edge_16_25_0_0 - 0.0553493266636415 edge_18_10_0_0
   - 0.3172592680669922 edge_18_14_0_0 - 0.5072722481359033 edge_18_16_0_0
   + 0.0661665645985409 edge_18_19_0_0 - 0.2412885986761684 edge_18_23_0_0
   - 0.5072801908338974 edge_18_24_0_0 - 1.109320055480522 edge_19_1_0_0
   - 2.2616811198421 edge_19_2_0_0 - 1.817494983137598 edge_19_3_0_0
   - 1.702360268909548 edge_19_6_0_0 - 2.351517526750315 edge_19_7_0_0
   - 0.8139435437643056 edge_19_9_0_0 - 0.8561065672894 edge_19_12_0_0
   - 0.6003464022488364 edge_19_13_0_0 - 1.018120794956892 edge_19_14_0_0
   - 0.8359836738730493 edge_19_16_0_0 - 0.2644144631063517 edge_19_18_0_0
   + 2.890697043763808 edge_19_20_0_0 + 1.145762675773567 edge_19_21_0_0
   + 0.4881433260492781 edge_19_22_0_0 + 1.50750356836842 edge_19_23_0_0
   + 1.8544459328605 edge_19_24_0_0 + 2.46150780113167 edge_19_25_0_0
   - 0.8362386379904911 edge_20_3_0_0 + 0.0401273401637533 edge_20_14_0_0
   + 0.1536681241087144 edge_20_18_0_0 + 0.6964325079894458 edge_20_21_0_0
   + 0.1164641504110457 edge_20_22_0_0 + 0.8876247288611626 edge_20_23_0_0
   + 0.6921840378256301 edge_20_24_0_0 + 0.2701615635411372 edge_21_20_0_0
   + 1.59403847841842 edge_21_22_0_0 + 1.5824024856197 edge_21_23_0_0
   - 0.2650782434920854 edge_22_18_0_0 + 0.6328799607429948 edge_22_21_0_0
   + 1.17181285626872 edge_22_23_0_0 + 0.4428339975656846 edge_22_24_0_0
   - 0.1768800164203152 edge_23_1_0_0 - 1.729968946974755 edge_23_3_0_0
   - 0.1541464671945598 edge_23_8_0_0 - 0.3378254749423637 edge_23_9_0_0
   - 0.015228740353407 edge_23_10_0_0 - 0.09694760382269 edge_23_18_0_0
   - 0.2606169167261062 edge_23_20_0_0 + 1.102553745672509 edge_23_21_0_0
   + 2.598552824049147 edge_23_22_0_0 + 1.233063464788731 edge_23_24_0_0
   - 0.58088863536387 edge_24_3_0_0 - 0.2840975784026197 edge_24_8_0_0
   - 0.5652393104289769 edge_24_9_0_0 - 1.0718090460891 edge_24_13_0_0
   - 0.069245027631128 edge_24_14_0_0 - 0.059513244291776 edge_24_16_0_0
   + 0.7613465484688 edge_24_20_0_0 + 2.4192128663728 edge_24_21_0_0
   + 1.6491731398175 edge_24_22_0_0 + 3.2086588448824 edge_24_23_0_0
   + 1.7427790588988 edge_24_25_0_0 - 1.5212691785142 edge_25_24_0_0
Subject To
 one_parent_1: edge_0_1_0_0 + edge_2_1_0_0 + edge_3_1_0_0 + edge_6_1_0_0
   + edge_8_1_0_0 + edge_9_1_0_0 + edge_12_1_0_0 + edge_19_1_0_0
   + edge_23_1_0_0 = 1
 consume_one_flow_unit_1: flow_0_1_0_0 - flow_1_2_0_0 - flow_1_3_0_0
   - flow_1_8_0_0 + flow_2_1_0_0 + flow_3_1_0_0 + flow_6_1_0_0
   + flow_8_1_0_0 + flow_9_1_0_0 + flow_12_1_0_0 + flow_19_1_0_0
   + flow_23_1_0_0 = 1
 one_parent_2: edge_0_2_0_0 + edge_1_2_0_0 + edge_3_2_0_0 + edge_6_2_0_0
   + edge_9_2_0_0 + edge_12_2_0_0 + edge_19_2_0_0 = 1
 consume_one_flow_unit_2: flow_0_2_0_0 + flow_1_2_0_0 - flow_2_1_0_0
   - flow_2_3_0_0 - flow_2_25_0_0 + flow_3_2_0_0 + flow_6_2_0_0
   + flow_9_2_0_0 + flow_12_2_0_0 + flow_19_2_0_0 = 1
 one_parent_3: edge_0_3_0_0 + edge_1_3_0_0 + edge_2_3_0_0 + edge_12_3_0_0
   + edge_13_3_0_0 + edge_19_3_0_0 + edge_20_3_0_0 + edge_23_3_0_0
   + edge_24_3_0_0 = 1
 consume_one_flow_unit_3: flow_0_3_0_0 + flow_1_3_0_0 + flow_2_3_0_0
   - flow_3_1_0_0 - flow_3_2_0_0 - flow_3_4_0_0 - flow_3_6_0_0
   - flow_3_7_0_0 - flow_3_9_0_0 - flow_3_11_0_0 - flow_3_12_0_0
   - flow_3_13_0_0 - flow_3_16_0_0 - flow_3_18_0_0 - flow_3_19_0_0
   - flow_3_20_0_0 - flow_3_21_0_0 - flow_3_22_0_0 - flow_3_23_0_0
   - flow_3_24_0_0 - flow_3_25_0_0 + flow_12_3_0_0 + flow_13_3_0_0
   + flow_19_3_0_0 + flow_20_3_0_0 + flow_23_3_0_0 + flow_24_3_0_0 = 1
 one_parent_4: edge_3_4_0_0 + edge_6_4_0_0 + edge_9_4_0_0 + edge_11_4_0_0
   + edge_12_4_0_0 + edge_13_4_0_0 + edge_16_4_0_0 = 1
 consume_one_flow_unit_4: flow_3_4_0_0 - flow_4_6_0_0 - flow_4_7_0_0
   - flow_4_9_0_0 - flow_4_11_0_0 - flow_4_12_0_0 - flow_4_14_0_0
   + flow_6_4_0_0 + flow_9_4_0_0 + flow_11_4_0_0 + flow_12_4_0_0
   + flow_13_4_0_0 + flow_16_4_0_0 = 1
 one_parent_5: = 1
 consume_one_flow_unit_5: = 1
 one_parent_6: edge_3_6_0_0 + edge_4_6_0_0 + edge_7_6_0_0 + edge_9_6_0_0
   + edge_12_6_0_0 + edge_13_6_0_0 + edge_19_6_0_0 = 1
 consume_one_flow_unit_6: flow_3_6_0_0 + flow_4_6_0_0 - flow_6_1_0_0
   - flow_6_2_0_0 - flow_6_4_0_0 - flow_6_7_0_0 - flow_6_9_0_0
   - flow_6_11_0_0 - flow_6_12_0_0 - flow_6_13_0_0 - flow_6_16_0_0
   - flow_6_18_0_0 - flow_6_19_0_0 - flow_6_24_0_0 - flow_6_25_0_0
   + flow_7_6_0_0 + flow_9_6_0_0 + flow_12_6_0_0 + flow_13_6_0_0
   + flow_19_6_0_0 = 1
 one_parent_7: edge_3_7_0_0 + edge_4_7_0_0 + edge_6_7_0_0 + edge_9_7_0_0
   + edge_11_7_0_0 + edge_12_7_0_0 + edge_13_7_0_0 + edge_16_7_0_0
   + edge_19_7_0_0 = 1
 consume_one_flow_unit_7: flow_3_7_0_0 + flow_4_7_0_0 + flow_6_7_0_0
   - flow_7_6_0_0 - flow_7_9_0_0 - flow_7_11_0_0 - flow_7_12_0_0
   - flow_7_13_0_0 - flow_7_14_0_0 + flow_9_7_0_0 + flow_11_7_0_0
   + flow_12_7_0_0 + flow_13_7_0_0 + flow_16_7_0_0 + flow_19_7_0_0 = 1
 one_parent_8: edge_0_8_0_0 + edge_1_8_0_0 + edge_9_8_0_0 + edge_10_8_0_0
   + edge_23_8_0_0 + edge_24_8_0_0 = 1
 consume_one_flow_unit_8: flow_0_8_0_0 + flow_1_8_0_0 - flow_8_1_0_0
   - flow_8_9_0_0 - flow_8_10_0_0 - flow_8_18_0_0 - flow_8_23_0_0
   - flow_8_24_0_0 + flow_9_8_0_0 + flow_10_8_0_0 + flow_23_8_0_0
   + flow_24_8_0_0 = 1
 one_parent_9: edge_0_9_0_0 + edge_3_9_0_0 + edge_4_9_0_0 + edge_6_9_0_0
   + edge_7_9_0_0 + edge_8_9_0_0 + edge_10_9_0_0 + edge_11_9_0_0
   + edge_12_9_0_0 + edge_13_9_0_0 + edge_19_9_0_0 + edge_23_9_0_0
   + edge_24_9_0_0 = 1
 consume_one_flow_unit_9: flow_0_9_0_0 + flow_3_9_0_0 + flow_4_9_0_0
   + flow_6_9_0_0 + flow_7_9_0_0 + flow_8_9_0_0 - flow_9_1_0_0
   - flow_9_2_0_0 - flow_9_4_0_0 - flow_9_6_0_0 - flow_9_7_0_0
   - flow_9_8_0_0 - flow_9_10_0_0 - flow_9_11_0_0 - flow_9_12_0_0
   - flow_9_13_0_0 - flow_9_16_0_0 - flow_9_18_0_0 - flow_9_19_0_0
   - flow_9_20_0_0 - flow_9_23_0_0 - flow_9_24_0_0 - flow_9_25_0_0
   + flow_10_9_0_0 + flow_11_9_0_0 + flow_12_9_0_0 + flow_13_9_0_0
   + flow_19_9_0_0 + flow_23_9_0_0 + flow_24_9_0_0 = 1
 one_parent_10: edge_0_10_0_0 + edge_8_10_0_0 + edge_9_10_0_0
   + edge_18_10_0_0 + edge_23_10_0_0 = 1
 consume_one_flow_unit_10: flow_0_10_0_0 + flow_8_10_0_0 + flow_9_10_0_0
   - flow_10_8_0_0 - flow_10_9_0_0 - flow_10_18_0_0 + flow_18_10_0_0
   + flow_23_10_0_0 = 1
 one_parent_11: edge_3_11_0_0 + edge_4_11_0_0 + edge_6_11_0_0
   + edge_7_11_0_0 + edge_9_11_0_0 + edge_12_11_0_0 + edge_13_11_0_0
   + edge_16_11_0_0 = 1
 consume_one_flow_unit_11: flow_3_11_0_0 + flow_4_11_0_0 + flow_6_11_0_0
   + flow_7_11_0_0 + flow_9_11_0_0 - flow_11_4_0_0 - flow_11_7_0_0
   - flow_11_9_0_0 - flow_11_12_0_0 + flow_12_11_0_0 + flow_13_11_0_0
   + flow_16_11_0_0 = 1
 one_parent_12: edge_0_12_0_0 + edge_3_12_0_0 + edge_4_12_0_0
   + edge_6_12_0_0 + edge_7_12_0_0 + edge_9_12_0_0 + edge_11_12_0_0
   + edge_13_12_0_0 + edge_19_12_0_0 = 1
 consume_one_flow_unit_12: flow_0_12_0_0 + flow_3_12_0_0 + flow_4_12_0_0
   + flow_6_12_0_0 + flow_7_12_0_0 + flow_9_12_0_0 + flow_11_12_0_0
   - flow_12_1_0_0 - flow_12_2_0_0 - flow_12_3_0_0 - flow_12_4_0_0
   - flow_12_6_0_0 - flow_12_7_0_0 - flow_12_9_0_0 - flow_12_11_0_0
   - flow_12_13_0_0 - flow_12_14_0_0 - flow_12_16_0_0 - flow_12_18_0_0
   - flow_12_19_0_0 - flow_12_20_0_0 - flow_12_21_0_0 - flow_12_22_0_0
   - flow_12_23_0_0 - flow_12_24_0_0 - flow_12_25_0_0 + flow_13_12_0_0
   + flow_19_12_0_0 = 1
 one_parent_13: edge_3_13_0_0 + edge_6_13_0_0 + edge_7_13_0_0
   + edge_9_13_0_0 + edge_12_13_0_0 + edge_16_13_0_0 + edge_19_13_0_0
   + edge_24_13_0_0 = 1
 consume_one_flow_unit_13: flow_3_13_0_0 + flow_6_13_0_0 + flow_7_13_0_0
   + flow_9_13_0_0 + flow_12_13_0_0 - flow_13_3_0_0 - flow_13_4_0_0
   - flow_13_6_0_0 - flow_13_7_0_0 - flow_13_9_0_0 - flow_13_11_0_0
   - flow_13_12_0_0 - flow_13_14_0_0 - flow_13_16_0_0 - flow_13_18_0_0
   - flow_13_19_0_0 - flow_13_20_0_0 - flow_13_21_0_0 - flow_13_22_0_0
   - flow_13_23_0_0 - flow_13_24_0_0 - flow_13_25_0_0 + flow_16_13_0_0
   + flow_19_13_0_0 + flow_24_13_0_0 = 1
 one_parent_14: edge_4_14_0_0 + edge_7_14_0_0 + edge_12_14_0_0
   + edge_13_14_0_0 + edge_16_14_0_0 + edge_18_14_0_0 + edge_19_14_0_0
   + edge_20_14_0_0 + edge_24_14_0_0 = 1
 consume_one_flow_unit_14: flow_4_14_0_0 + flow_7_14_0_0 + flow_12_14_0_0
   + flow_13_14_0_0 - flow_14_16_0_0 - flow_14_18_0_0 - flow_14_19_0_0
   - flow_14_21_0_0 + flow_16_14_0_0 + flow_18_14_0_0 + flow_19_14_0_0
   + flow_20_14_0_0 + flow_24_14_0_0 = 1
 one_parent_15: = 1
 consume_one_flow_unit_15: = 1
 one_parent_16: edge_3_16_0_0 + edge_6_16_0_0 + edge_9_16_0_0
   + edge_12_16_0_0 + edge_13_16_0_0 + edge_14_16_0_0 + edge_18_16_0_0
   + edge_19_16_0_0 + edge_24_16_0_0 = 1
 consume_one_flow_unit_16: flow_3_16_0_0 + flow_6_16_0_0 + flow_9_16_0_0
   + flow_12_16_0_0 + flow_13_16_0_0 + flow_14_16_0_0 - flow_16_4_0_0
   - flow_16_7_0_0 - flow_16_11_0_0 - flow_16_13_0_0 - flow_16_14_0_0
   - flow_16_18_0_0 - flow_16_19_0_0 - flow_16_20_0_0 - flow_16_21_0_0
   - flow_16_22_0_0 - flow_16_23_0_0 - flow_16_24_0_0 - flow_16_25_0_0
   + flow_18_16_0_0 + flow_19_16_0_0 + flow_24_16_0_0 = 1
 one_parent_17: = 1
 consume_one_flow_unit_17: = 1
 one_parent_18: edge_3_18_0_0 + edge_6_18_0_0 + edge_8_18_0_0
   + edge_9_18_0_0 + edge_10_18_0_0 + edge_12_18_0_0 + edge_13_18_0_0
   + edge_14_18_0_0 + edge_16_18_0_0 + edge_19_18_0_0 + edge_20_18_0_0
   + edge_22_18_0_0 + edge_23_18_0_0 = 1
 consume_one_flow_unit_18: flow_3_18_0_0 + flow_6_18_0_0 + flow_8_18_0_0
   + flow_9_18_0_0 + flow_10_18_0_0 + flow_12_18_0_0 + flow_13_18_0_0
   + flow_14_18_0_0 + flow_16_18_0_0 - flow_18_10_0_0 - flow_18_14_0_0
   - flow_18_16_0_0 - flow_18_19_0_0 - flow_18_23_0_0 - flow_18_24_0_0
   + flow_19_18_0_0 + flow_20_18_0_0 + flow_22_18_0_0 + flow_23_18_0_0 = 1
 one_parent_19: edge_0_19_0_0 + edge_3_19_0_0 + edge_6_19_0_0
   + edge_9_19_0_0 + edge_12_19_0_0 + edge_13_19_0_0 + edge_14_19_0_0
   + edge_16_19_0_0 + edge_18_19_0_0 = 1
 consume_one_flow_unit_19: flow_0_19_0_0 + flow_3_19_0_0 + flow_6_19_0_0
   + flow_9_19_0_0 + flow_12_19_0_0 + flow_13_19_0_0 + flow_14_19_0_0
   + flow_16_19_0_0 + flow_18_19_0_0 - flow_19_1_0_0 - flow_19_2_0_0
   - flow_19_3_0_0 - flow_19_6_0_0 - flow_19_7_0_0 - flow_19_9_0_0
   - flow_19_12_0_0 - flow_19_13_0_0 - flow_19_14_0_0 - flow_19_16_0_0
   - flow_19_18_0_0 - flow_19_20_0_0 - flow_19_21_0_0 - flow_19_22_0_0
   - flow_19_23_0_0 - flow_19_24_0_0 - flow_19_25_0_0 = 1
 one_parent_20: edge_3_20_0_0 + edge_9_20_0_0 + edge_12_20_0_0
   + edge_13_20_0_0 + edge_16_20_0_0 + edge_19_20_0_0 + edge_21_20_0_0
   + edge_23_20_0_0 + edge_24_20_0_0 = 1
 consume_one_flow_unit_20: flow_3_20_0_0 + flow_9_20_0_0 + flow_12_20_0_0
   + flow_13_20_0_0 + flow_16_20_0_0 + flow_19_20_0_0 - flow_20_3_0_0
   - flow_20_14_0_0 - flow_20_18_0_0 - flow_20_21_0_0 - flow_20_22_0_0
   - flow_20_23_0_0 - flow_20_24_0_0 + flow_21_20_0_0 + flow_23_20_0_0
   + flow_24_20_0_0 = 1
 one_parent_21: edge_3_21_0_0 + edge_12_21_0_0 + edge_13_21_0_0
   + edge_14_21_0_0 + edge_16_21_0_0 + edge_19_21_0_0 + edge_20_21_0_0
   + edge_22_21_0_0 + edge_23_21_0_0 + edge_24_21_0_0 = 1
 consume_one_flow_unit_21: flow_3_21_0_0 + flow_12_21_0_0 + flow_13_21_0_0
   + flow_14_21_0_0 + flow_16_21_0_0 + flow_19_21_0_0 + flow_20_21_0_0
   - flow_21_20_0_0 - flow_21_22_0_0 - flow_21_23_0_0 + flow_22_21_0_0
   + flow_23_21_0_0 + flow_24_21_0_0 = 1
 one_parent_22: edge_3_22_0_0 + edge_12_22_0_0 + edge_13_22_0_0
   + edge_16_22_0_0 + edge_19_22_0_0 + edge_20_22_0_0 + edge_21_22_0_0
   + edge_23_22_0_0 + edge_24_22_0_0 = 1
 consume_one_flow_unit_22: flow_3_22_0_0 + flow_12_22_0_0 + flow_13_22_0_0
   + flow_16_22_0_0 + flow_19_22_0_0 + flow_20_22_0_0 + flow_21_22_0_0
   - flow_22_18_0_0 - flow_22_21_0_0 - flow_22_23_0_0 - flow_22_24_0_0
   + flow_23_22_0_0 + flow_24_22_0_0 = 1
 one_parent_23: edge_0_23_0_0 + edge_3_23_0_0 + edge_8_23_0_0
   + edge_9_23_0_0 + edge_12_23_0_0 + edge_13_23_0_0 + edge_16_23_0_0
   + edge_18_23_0_0 + edge_19_23_0_0 + edge_20_23_0_0 + edge_21_23_0_0
   + edge_22_23_0_0 + edge_24_23_0_0 = 1
 consume_one_flow_unit_23: flow_0_23_0_0 + flow_3_23_0_0 + flow_8_23_0_0
   + flow_9_23_0_0 + flow_12_23_0_0 + flow_13_23_0_0 + flow_16_23_0_0
   + flow_18_23_0_0 + flow_19_23_0_0 + flow_20_23_0_0 + flow_21_23_0_0
   + flow_22_23_0_0 - flow_23_1_0_0 - flow_23_3_0_0 - flow_23_8_0_0
   - flow_23_9_0_0 - flow_23_10_0_0 - flow_23_18_0_0 - flow_23_20_0_0
   - flow_23_21_0_0 - flow_23_22_0_0 - flow_23_24_0_0 + flow_24_23_0_0 = 1
 one_parent_24: edge_3_24_0_0 + edge_6_24_0_0 + edge_8_24_0_0
   + edge_9_24_0_0 + edge_12_24_0_0 + edge_13_24_0_0 + edge_16_24_0_0
   + edge_18_24_0_0 + edge_19_24_0_0 + edge_20_24_0_0 + edge_22_24_0_0
   + edge_23_24_0_0 + edge_25_24_0_0 = 1
 consume_one_flow_unit_24: flow_3_24_0_0 + flow_6_24_0_0 + flow_8_24_0_0
   + flow_9_24_0_0 + flow_12_24_0_0 + flow_13_24_0_0 + flow_16_24_0_0
   + flow_18_24_0_0 + flow_19_24_0_0 + flow_20_24_0_0 + flow_22_24_0_0
   + flow_23_24_0_0 - flow_24_3_0_0 - flow_24_8_0_0 - flow_24_9_0_0
   - flow_24_13_0_0 - flow_24_14_0_0 - flow_24_16_0_0 - flow_24_20_0_0
   - flow_24_21_0_0 - flow_24_22_0_0 - flow_24_23_0_0 - flow_24_25_0_0
   + flow_25_24_0_0 = 1
 one_parent_25: edge_2_25_0_0 + edge_3_25_0_0 + edge_6_25_0_0
   + edge_9_25_0_0 + edge_12_25_0_0 + edge_13_25_0_0 + edge_16_25_0_0
   + edge_19_25_0_0 + edge_24_25_0_0 = 1
 consume_one_flow_unit_25: flow_2_25_0_0 + flow_3_25_0_0 + flow_6_25_0_0
   + flow_9_25_0_0 + flow_12_25_0_0 + flow_13_25_0_0 + flow_16_25_0_0
   + flow_19_25_0_0 + flow_24_25_0_0 - flow_25_24_0_0 = 1
 root_flow: flow_0_1_0_0 + flow_0_2_0_0 + flow_0_3_0_0 + flow_0_8_0_0
   + flow_0_9_0_0 + flow_0_10_0_0 + flow_0_12_0_0 + flow_0_19_0_0
   + flow_0_23_0_0 = 25
 inactive_no_flow_0_1_0_0: flow_0_1_0_0 - 1000 edge_0_1_0_0 <= 0
 inactive_no_flow_0_2_0_0: flow_0_2_0_0 - 1000 edge_0_2_0_0 <= 0
 inactive_no_flow_0_3_0_0: flow_0_3_0_0 - 1000 edge_0_3_0_0 <= 0
 inactive_no_flow_0_8_0_0: flow_0_8_0_0 - 1000 edge_0_8_0_0 <= 0
 inactive_no_flow_0_9_0_0: flow_0_9_0_0 - 1000 edge_0_9_0_0 <= 0
 inactive_no_flow_0_10_0_0: flow_0_10_0_0 - 1000 edge_0_10_0_0 <= 0
 inactive_no_flow_0_12_0_0: flow_0_12_0_0 - 1000 edge_0_12_0_0 <= 0
 inactive_no_flow_0_19_0_0: flow_0_19_0_0 - 1000 edge_0_19_0_0 <= 0
 inactive_no_flow_0_23_0_0: flow_0_23_0_0 - 1000 edge_0_23_0_0 <= 0
 inactive_no_flow_1_2_0_0: flow_1_2_0_0 - 1000 edge_1_2_0_0 <= 0
 inactive_no_flow_1_3_0_0: flow_1_3_0_0 - 1000 edge_1_3_0_0 <= 0
 inactive_no_flow_1_8_0_0: flow_1_8_0_0 - 1000 edge_1_8_0_0 <= 0
 inactive_no_flow_2_1_0_0: flow_2_1_0_0 - 1000 edge_2_1_0_0 <= 0
 inactive_no_flow_2_3_0_0: flow_2_3_0_0 - 1000 edge_2_3_0_0 <= 0
 inactive_no_flow_2_25_0_0: flow_2_25_0_0 - 1000 edge_2_25_0_0 <= 0
 inactive_no_flow_3_1_0_0: flow_3_1_0_0 - 1000 edge_3_1_0_0 <= 0
 inactive_no_flow_3_2_0_0: flow_3_2_0_0 - 1000 edge_3_2_0_0 <= 0
 inactive_no_flow_3_4_0_0: flow_3_4_0_0 - 1000 edge_3_4_0_0 <= 0
 inactive_no_flow_3_6_0_0: flow_3_6_0_0 - 1000 edge_3_6_0_0 <= 0
 inactive_no_flow_3_7_0_0: flow_3_7_0_0 - 1000 edge_3_7_0_0 <= 0
 inactive_no_flow_3_9_0_0: flow_3_9_0_0 - 1000 edge_3_9_0_0 <= 0
 inactive_no_flow_3_11_0_0: flow_3_11_0_0 - 1000 edge_3_11_0_0 <= 0
 inactive_no_flow_3_12_0_0: flow_3_12_0_0 - 1000 edge_3_12_0_0 <= 0
 inactive_no_flow_3_13_0_0: flow_3_13_0_0 - 1000 edge_3_13_0_0 <= 0
 inactive_no_flow_3_16_0_0: flow_3_16_0_0 - 1000 edge_3_16_0_0 <= 0
 inactive_no_flow_3_18_0_0: flow_3_18_0_0 - 1000 edge_3_18_0_0 <= 0
 inactive_no_flow_3_19_0_0: flow_3_19_0_0 - 1000 edge_3_19_0_0 <= 0
 inactive_no_flow_3_20_0_0: flow_3_20_0_0 - 1000 edge_3_20_0_0 <= 0
 inactive_no_flow_3_21_0_0: flow_3_21_0_0 - 1000 edge_3_21_0_0 <= 0
 inactive_no_flow_3_22_0_0: flow_3_22_0_0 - 1000 edge_3_22_0_0 <= 0
 inactive_no_flow_3_23_0_0: flow_3_23_0_0 - 1000 edge_3_23_0_0 <= 0
 inactive_no_flow_3_24_0_0: flow_3_24_0_0 - 1000 edge_3_24_0_0 <= 0
 inactive_no_flow_3_25_0_0: flow_3_25_0_0 - 1000 edge_3_25_0_0 <= 0
 inactive_no_flow_4_6_0_0: flow_4_6_0_0 - 1000 edge_4_6_0_0 <= 0
 inactive_no_flow_4_7_0_0: flow_4_7_0_0 - 1000 edge_4_7_0_0 <= 0
 inactive_no_flow_4_9_0_0: flow_4_9_0_0 - 1000 edge_4_9_0_0 <= 0
 inactive_no_flow_4_11_0_0: flow_4_11_0_0 - 1000 edge_4_11_0_0 <= 0
 inactive_no_flow_4_12_0_0: flow_4_12_0_0 - 1000 edge_4_12_0_0 <= 0
 inactive_no_flow_4_14_0_0: flow_4_14_0_0 - 1000 edge_4_14_0_0 <= 0
 inactive_no_flow_6_1_0_0: flow_6_1_0_0 - 1000 edge_6_1_0_0 <= 0
 inactive_no_flow_6_2_0_0: flow_6_2_0_0 - 1000 edge_6_2_0_0 <= 0
 inactive_no_flow_6_4_0_0: flow_6_4_0_0 - 1000 edge_6_4_0_0 <= 0
 inactive_no_flow_6_7_0_0: flow_6_7_0_0 - 1000 edge_6_7_0_0 <= 0
 inactive_no_flow_6_9_0_0: flow_6_9_0_0 - 1000 edge_6_9_0_0 <= 0
 inactive_no_flow_6_11_0_0: flow_6_11_0_0 - 1000 edge_6_11_0_0 <= 0
 inactive_no_flow_6_12_0_0: flow_6_12_0_0 - 1000 edge_6_12_0_0 <= 0
 inactive_no_flow_6_13_0_0: flow_6_13_0_0 - 1000 edge_6_13_0_0 <= 0
 inactive_no_flow_6_16_0_0: flow_6_16_0_0 - 1000 edge_6_16_0_0 <= 0
 inactive_no_flow_6_18_0_0: flow_6_18_0_0 - 1000 edge_6_18_0_0 <= 0
 inactive_no_flow_6_19_0_0: flow_6_19_0_0 - 1000 edge_6_19_0_0 <= 0
 inactive_no_flow_6_24_0_0: flow_6_24_0_0 - 1000 edge_6_24_0_0 <= 0
 inactive_no_flow_6_25_0_0: flow_6_25_0_0 - 1000 edge_6_25_0_0 <= 0
 inactive_no_flow_7_6_0_0: flow_7_6_0_0 - 1000 edge_7_6_0_0 <= 0
 inactive_no_flow_7_9_0_0: flow_7_9_0_0 - 1000 edge_7_9_0_0 <= 0
 inactive_no_flow_7_11_0_0: flow_7_11_0_0 - 1000 edge_7_11_0_0 <= 0
 inactive_no_flow_7_12_0_0: flow_7_12_0_0 - 1000 edge_7_12_0_0 <= 0
 inactive_no_flow_7_13_0_0: flow_7_13_0_0 - 1000 edge_7_13_0_0 <= 0
 inactive_no_flow_7_14_0_0: flow_7_14_0_0 - 1000 edge_7_14_0_0 <= 0
 inactive_no_flow_8_1_0_0: flow_8_1_0_0 - 1000 edge_8_1_0_0 <= 0
 inactive_no_flow_8_9_0_0: flow_8_9_0_0 - 1000 edge_8_9_0_0 <= 0
 inactive_no_flow_8_10_0_0: flow_8_10_0_0 - 1000 edge_8_10_0_0 <= 0
 inactive_no_flow_8_18_0_0: flow_8_18_0_0 - 1000 edge_8_18_0_0 <= 0
 inactive_no_flow_8_23_0_0: flow_8_23_0_0 - 1000 edge_8_23_0_0 <= 0
 inactive_no_flow_8_24_0_0: flow_8_24_0_0 - 1000 edge_8_24_0_0 <= 0
 inactive_no_flow_9_1_0_0: flow_9_1_0_0 - 1000 edge_9_1_0_0 <= 0
 inactive_no_flow_9_2_0_0: flow_9_2_0_0 - 1000 edge_9_2_0_0 <= 0
 inactive_no_flow_9_4_0_0: flow_9_4_0_0 - 1000 edge_9_4_0_0 <= 0
 inactive_no_flow_9_6_0_0: flow_9_6_0_0 - 1000 edge_9_6_0_0 <= 0
 inactive_no_flow_9_7_0_0: flow_9_7_0_0 - 1000 edge_9_7_0_0 <= 0
 inactive_no_flow_9_8_0_0: flow_9_8_0_0 - 1000 edge_9_8_0_0 <= 0
 inactive_no_flow_9_10_0_0: flow_9_10_0_0 - 1000 edge_9_10_0_0 <= 0
 inactive_no_flow_9_11_0_0: flow_9_11_0_0 - 1000 edge_9_11_0_0 <= 0
 inactive_no_flow_9_12_0_0: flow_9_12_0_0 - 1000 edge_9_12_0_0 <= 0
 inactive_no_flow_9_13_0_0: flow_9_13_0_0 - 1000 edge_9_13_0_0 <= 0
 inactive_no_flow_9_16_0_0: flow_9_16_0_0 - 1000 edge_9_16_0_0 <= 0
 inactive_no_flow_9_18_0_0: flow_9_18_0_0 - 1000 edge_9_18_0_0 <= 0
 inactive_no_flow_9_19_0_0: flow_9_19_0_0 - 1000 edge_9_19_0_0 <= 0
 inactive_no_flow_9_20_0_0: flow_9_20_0_0 - 1000 edge_9_20_0_0 <= 0
 inactive_no_flow_9_23_0_0: flow_9_23_0_0 - 1000 edge_9_23_0_0 <= 0
 inactive_no_flow_9_24_0_0: flow_9_24_0_0 - 1000 edge_9_24_0_0 <= 0
 inactive_no_flow_9_25_0_0: flow_9_25_0_0 - 1000 edge_9_25_0_0 <= 0
 inactive_no_flow_10_8_0_0: flow_10_8_0_0 - 1000 edge_10_8_0_0 <= 0
 inactive_no_flow_10_9_0_0: flow_10_9_0_0 - 1000 edge_10_9_0_0 <= 0
 inactive_no_flow_10_18_0_0: flow_10_18_0_0 - 1000 edge_10_18_0_0 <= 0
 inactive_no_flow_11_4_0_0: flow_11_4_0_0 - 1000 edge_11_4_0_0 <= 0
 inactive_no_flow_11_7_0_0: flow_11_7_0_0 - 1000 edge_11_7_0_0 <= 0
 inactive_no_flow_11_9_0_0: flow_11_9_0_0 - 1000 edge_11_9_0_0 <= 0
 inactive_no_flow_11_12_0_0: flow_11_12_0_0 - 1000 edge_11_12_0_0 <= 0
 inactive_no_flow_12_1_0_0: flow_12_1_0_0 - 1000 edge_12_1_0_0 <= 0
 inactive_no_flow_12_2_0_0: flow_12_2_0_0 - 1000 edge_12_2_0_0 <= 0
 inactive_no_flow_12_3_0_0: flow_12_3_0_0 - 1000 edge_12_3_0_0 <= 0
 inactive_no_flow_12_4_0_0: flow_12_4_0_0 - 1000 edge_12_4_0_0 <= 0
 inactive_no_flow_12_6_0_0: flow_12_6_0_0 - 1000 edge_12_6_0_0 <= 0
 inactive_no_flow_12_7_0_0: flow_12_7_0_0 - 1000 edge_12_7_0_0 <= 0
 inactive_no_flow_12_9_0_0: flow_12_9_0_0 - 1000 edge_12_9_0_0 <= 0
 inactive_no_flow_12_11_0_0: flow_12_11_0_0 - 1000 edge_12_11_0_0 <= 0
 inactive_no_flow_12_13_0_0: flow_12_13_0_0 - 1000 edge_12_13_0_0 <= 0
 inactive_no_flow_12_14_0_0: flow_12_14_0_0 - 1000 edge_12_14_0_0 <= 0
 inactive_no_flow_12_16_0_0: flow_12_16_0_0 - 1000 edge_12_16_0_0 <= 0
 inactive_no_flow_12_18_0_0: flow_12_18_0_0 - 1000 edge_12_18_0_0 <= 0
 inactive_no_flow_12_19_0_0: flow_12_19_0_0 - 1000 edge_12_19_0_0 <= 0
 inactive_no_flow_12_20_0_0: flow_12_20_0_0 - 1000 edge_12_20_0_0 <= 0
 inactive_no_flow_12_21_0_0: flow_12_21_0_0 - 1000 edge_12_21_0_0 <= 0
 inactive_no_flow_12_22_0_0: flow_12_22_0_0 - 1000 edge_12_22_0_0 <= 0
 inactive_no_flow_12_23_0_0: flow_12_23_0_0 - 1000 edge_12_23_0_0 <= 0
 inactive_no_flow_12_24_0_0: flow_12_24_0_0 - 1000 edge_12_24_0_0 <= 0
 inactive_no_flow_12_25_0_0: flow_12_25_0_0 - 1000 edge_12_25_0_0 <= 0
 inactive_no_flow_13_3_0_0: flow_13_3_0_0 - 1000 edge_13_3_0_0 <= 0
 inactive_no_flow_13_4_0_0: flow_13_4_0_0 - 1000 edge_13_4_0_0 <= 0
 inactive_no_flow_13_6_0_0: flow_13_6_0_0 - 1000 edge_13_6_0_0 <= 0
 inactive_no_flow_13_7_0_0: flow_13_7_0_0 - 1000 edge_13_7_0_0 <= 0
 inactive_no_flow_13_9_0_0: flow_13_9_0_0 - 1000 edge_13_9_0_0 <= 0
 inactive_no_flow_13_11_0_0: flow_13_11_0_0 - 1000 edge_13_11_0_0 <= 0
 inactive_no_flow_13_12_0_0: flow_13_12_0_0 - 1000 edge_13_12_0_0 <= 0
 inactive_no_flow_13_14_0_0: flow_13_14_0_0 - 1000 edge_13_14_0_0 <= 0
 inactive_no_flow_13_16_0_0: flow_13_16_0_0 - 1000 edge_13_16_0_0 <= 0
 inactive_no_flow_13_18_0_0: flow_13_18_0_0 - 1000 edge_13_18_0_0 <= 0
 inactive_no_flow_13_19_0_0: flow_13_19_0_0 - 1000 edge_13_19_0_0 <= 0
 inactive_no_flow_13_20_0_0: flow_13_20_0_0 - 1000 edge_13_20_0_0 <= 0
 inactive_no_flow_13_21_0_0: flow_13_21_0_0 - 1000 edge_13_21_0_0 <= 0
 inactive_no_flow_13_22_0_0: flow_13_22_0_0 - 1000 edge_13_22_0_0 <= 0
 inactive_no_flow_13_23_0_0: flow_13_23_0_0 - 1000 edge_13_23_0_0 <= 0
 inactive_no_flow_13_24_0_0: flow_13_24_0_0 - 1000 edge_13_24_0_0 <= 0
 inactive_no_flow_13_25_0_0: flow_13_25_0_0 - 1000 edge_13_25_0_0 <= 0
 inactive_no_flow_14_16_0_0: flow_14_16_0_0 - 1000 edge_14_16_0_0 <= 0
 inactive_no_flow_14_18_0_0: flow_14_18_0_0 - 1000 edge_14_18_0_0 <= 0
 inactive_no_flow_14_19_0_0: flow_14_19_0_0 - 1000 edge_14_19_0_0 <= 0
 inactive_no_flow_14_21_0_0: flow_14_21_0_0 - 1000 edge_14_21_0_0 <= 0
 inactive_no_flow_16_4_0_0: flow_16_4_0_0 - 1000 edge_16_4_0_0 <= 0
 inactive_no_flow_16_7_0_0: flow_16_7_0_0 - 1000 edge_16_7_0_0 <= 0
 inactive_no_flow_16_11_0_0: flow_16_11_0_0 - 1000 edge_16_11_0_0 <= 0
 inactive_no_flow_16_13_0_0: flow_16_13_0_0 - 1000 edge_16_13_0_0 <= 0
 inactive_no_flow_16_14_0_0: flow_16_14_0_0 - 1000 edge_16_14_0_0 <= 0
 inactive_no_flow_16_18_0_0: flow_16_18_0_0 - 1000 edge_16_18_0_0 <= 0
 inactive_no_flow_16_19_0_0: flow_16_19_0_0 - 1000 edge_16_19_0_0 <= 0
 inactive_no_flow_16_20_0_0: flow_16_20_0_0 - 1000 edge_16_20_0_0 <= 0
 inactive_no_flow_16_21_0_0: flow_16_21_0_0 - 1000 edge_16_21_0_0 <= 0
 inactive_no_flow_16_22_0_0: flow_16_22_0_0 - 1000 edge_16_22_0_0 <= 0
 inactive_no_flow_16_23_0_0: flow_16_23_0_0 - 1000 edge_16_23_0_0 <= 0
 inactive_no_flow_16_24_0_0: flow_16_24_0_0 - 1000 edge_16_24_0_0 <= 0
 inactive_no_flow_16_25_0_0: flow_16_25_0_0 - 1000 edge_16_25_0_0 <= 0
 inactive_no_flow_18_10_0_0: flow_18_10_0_0 - 1000 edge_18_10_0_0 <= 0
 inactive_no_flow_18_14_0_0: flow_18_14_0_0 - 1000 edge_18_14_0_0 <= 0
 inactive_no_flow_18_16_0_0: flow_18_16_0_0 - 1000 edge_18_16_0_0 <= 0
 inactive_no_flow_18_19_0_0: flow_18_19_0_0 - 1000 edge_18_19_0_0 <= 0
 inactive_no_flow_18_23_0_0: flow_18_23_0_0 - 1000 edge_18_23_0_0 <= 0
 inactive_no_flow_18_24_0_0: flow_18_24_0_0 - 1000 edge_18_24_0_0 <= 0
 inactive_no_flow_19_1_0_0: flow_19_1_0_0 - 1000 edge_19_1_0_0 <= 0
 inactive_no_flow_19_2_0_0: flow_19_2_0_0 - 1000 edge_19_2_0_0 <= 0
 inactive_no_flow_19_3_0_0: flow_19_3_0_0 - 1000 edge_19_3_0_0 <= 0
 inactive_no_flow_19_6_0_0: flow_19_6_0_0 - 1000 edge_19_6_0_0 <= 0
 inactive_no_flow_19_7_0_0: flow_19_7_0_0 - 1000 edge_19_7_0_0 <= 0
 inactive_no_flow_19_9_0_0: flow_19_9_0_0 - 1000 edge_19_9_0_0 <= 0
 inactive_no_flow_19_12_0_0: flow_19_12_0_0 - 1000 edge_19_12_0_0 <= 0
 inactive_no_flow_19_13_0_0: flow_19_13_0_0 - 1000 edge_19_13_0_0 <= 0
 inactive_no_flow_19_14_0_0: flow_19_14_0_0 - 1000 edge_19_14_0_0 <= 0
 inactive_no_flow_19_16_0_0: flow_19_16_0_0 - 1000 edge_19_16_0_0 <= 0
 inactive_no_flow_19_18_0_0: flow_19_18_0_0 - 1000 edge_19_18_0_0 <= 0
 inactive_no_flow_19_20_0_0: flow_19_20_0_0 - 1000 edge_19_20_0_0 <= 0
 inactive_no_flow_19_21_0_0: flow_19_21_0_0 - 1000 edge_19_21_0_0 <= 0
 inactive_no_flow_19_22_0_0: flow_19_22_0_0 - 1000 edge_19_22_0_0 <= 0
 inactive_no_flow_19_23_0_0: flow_19_23_0_0 - 1000 edge_19_23_0_0 <= 0
 inactive_no_flow_19_24_0_0: flow_19_24_0_0 - 1000 edge_19_24_0_0 <= 0
 inactive_no_flow_19_25_0_0: flow_19_25_0_0 - 1000 edge_19_25_0_0 <= 0
 inactive_no_flow_20_3_0_0: flow_20_3_0_0 - 1000 edge_20_3_0_0 <= 0
 inactive_no_flow_20_14_0_0: flow_20_14_0_0 - 1000 edge_20_14_0_0 <= 0
 inactive_no_flow_20_18_0_0: flow_20_18_0_0 - 1000 edge_20_18_0_0 <= 0
 inactive_no_flow_20_21_0_0: flow_20_21_0_0 - 1000 edge_20_21_0_0 <= 0
 inactive_no_flow_20_22_0_0: flow_20_22_0_0 - 1000 edge_20_22_0_0 <= 0
 inactive_no_flow_20_23_0_0: flow_20_23_0_0 - 1000 edge_20_23_0_0 <= 0
 inactive_no_flow_20_24_0_0: flow_20_24_0_0 - 1000 edge_20_24_0_0 <= 0
 inactive_no_flow_21_20_0_0: flow_21_20_0_0 - 1000 edge_21_20_0_0 <= 0
 inactive_no_flow_21_22_0_0: flow_21_22_0_0 - 1000 edge_21_22_0_0 <= 0
 inactive_no_flow_21_23_0_0: flow_21_23_0_0 - 1000 edge_21_23_0_0 <= 0
 inactive_no_flow_22_18_0_0: flow_22_18_0_0 - 1000 edge_22_18_0_0 <= 0
 inactive_no_flow_22_21_0_0: flow_22_21_0_0 - 1000 edge_22_21_0_0 <= 0
 inactive_no_flow_22_23_0_0: flow_22_23_0_0 - 1000 edge_22_23_0_0 <= 0
 inactive_no_flow_22_24_0_0: flow_22_24_0_0 - 1000 edge_22_24_0_0 <= 0
 inactive_no_flow_23_1_0_0: flow_23_1_0_0 - 1000 edge_23_1_0_0 <= 0
 inactive_no_flow_23_3_0_0: flow_23_3_0_0 - 1000 edge_23_3_0_0 <= 0
 inactive_no_flow_23_8_0_0: flow_23_8_0_0 - 1000 edge_23_8_0_0 <= 0
 inactive_no_flow_23_9_0_0: flow_23_9_0_0 - 1000 edge_23_9_0_0 <= 0
 inactive_no_flow_23_10_0_0: flow_23_10_0_0 - 1000 edge_23_10_0_0 <= 0
 inactive_no_flow_23_18_0_0: flow_23_18_0_0 - 1000 edge_23_18_0_0 <= 0
 inactive_no_flow_23_20_0_0: flow_23_20_0_0 - 1000 edge_23_20_0_0 <= 0
 inactive_no_flow_23_21_0_0: flow_23_21_0_0 - 1000 edge_23_21_0_0 <= 0
 inactive_no_flow_23_22_0_0: flow_23_22_0_0 - 1000 edge_23_22_0_0 <= 0
 inactive_no_flow_23_24_0_0: flow_23_24_0_0 - 1000 edge_23_24_0_0 <= 0
 inactive_no_flow_24_3_0_0: flow_24_3_0_0 - 1000 edge_24_3_0_0 <= 0
 inactive_no_flow_24_8_0_0: flow_24_8_0_0 - 1000 edge_24_8_0_0 <= 0
 inactive_no_flow_24_9_0_0: flow_24_9_0_0 - 1000 edge_24_9_0_0 <= 0
 inactive_no_flow_24_13_0_0: flow_24_13_0_0 - 1000 edge_24_13_0_0 <= 0
 inactive_no_flow_24_14_0_0: flow_24_14_0_0 - 1000 edge_24_14_0_0 <= 0
 inactive_no_flow_24_16_0_0: flow_24_16_0_0 - 1000 edge_24_16_0_0 <= 0
 inactive_no_flow_24_20_0_0: flow_24_20_0_0 - 1000 edge_24_20_0_0 <= 0
 inactive_no_flow_24_21_0_0: flow_24_21_0_0 - 1000 edge_24_21_0_0 <= 0
 inactive_no_flow_24_22_0_0: flow_24_22_0_0 - 1000 edge_24_22_0_0 <= 0
 inactive_no_flow_24_23_0_0: flow_24_23_0_0 - 1000 edge_24_23_0_0 <= 0
 inactive_no_flow_24_25_0_0: flow_24_25_0_0 - 1000 edge_24_25_0_0 <= 0
 inactive_no_flow_25_24_0_0: flow_25_24_0_0 - 1000 edge_25_24_0_0 <= 0
Bounds
Binaries
 edge_0_1_0_0 edge_0_2_0_0 edge_0_3_0_0 edge_0_8_0_0 edge_0_9_0_0
 edge_0_10_0_0 edge_0_12_0_0 edge_0_19_0_0 edge_0_23_0_0 edge_1_2_0_0
 edge_1_3_0_0 edge_1_8_0_0 edge_2_1_0_0 edge_2_3_0_0 edge_2_25_0_0
 edge_3_1_0_0 edge_3_2_0_0 edge_3_4_0_0 edge_3_6_0_0 edge_3_7_0_0
 edge_3_9_0_0 edge_3_11_0_0 edge_3_12_0_0 edge_3_13_0_0 edge_3_16_0_0
 edge_3_18_0_0 edge_3_19_0_0 edge_3_20_0_0 edge_3_21_0_0 edge_3_22_0_0
 edge_3_23_0_0 edge_3_24_0_0 edge_3_25_0_0 edge_4_6_0_0 edge_4_7_0_0
 edge_4_9_0_0 edge_4_11_0_0 edge_4_12_0_0 edge_4_14_0_0 edge_6_1_0_0
 edge_6_2_0_0 edge_6_4_0_0 edge_6_7_0_0 edge_6_9_0_0 edge_6_11_0_0
 edge_6_12_0_0 edge_6_13_0_0 edge_6_16_0_0 edge_6_18_0_0 edge_6_19_0_0
 edge_6_24_0_0 edge_6_25_0_0 edge_7_6_0_0 edge_7_9_0_0 edge_7_11_0_0
 edge_7_12_0_0 edge_7_13_0_0 edge_7_14_0_0 edge_8_1_0_0 edge_8_9_0_0
 edge_8_10_0_0 edge_8_18_0_0 edge_8_23_0_0 edge_8_24_0_0 edge_9_1_0_0
 edge_9_2_0_0 edge_9_4_0_0 edge_9_6_0_0 edge_9_7_0_0 edge_9_8_0_0
 edge_9_10_0_0 edge_9_11_0_0 edge_9_12_0_0 edge_9_13_0_0 edge_9_16_0_0
 edge_9_18_0_0 edge_9_19_0_0 edge_9_20_0_0 edge_9_23_0_0 edge_9_24_0_0
 edge_9_25_0_0 edge_10_8_0_0 edge_10_9_0_0 edge_10_18_0_0 edge_11_4_0_0
 edge_11_7_0_0 edge_11_9_0_0 edge_11_12_0_0 edge_12_1_0_0 edge_12_2_0_0
 edge_12_3_0_0 edge_12_4_0_0 edge_12_6_0_0 edge_12_7_0_0 edge_12_9_0_0
 edge_12_11_0_0 edge_12_13_0_0 edge_12_14_0_0 edge_12_16_0_0 edge_12_18_0_0
 edge_12_19_0_0 edge_12_20_0_0 edge_12_21_0_0 edge_12_22_0_0 edge_12_23_0_0
 edge_12_24_0_0 edge_12_25_0_0 edge_13_3_0_0 edge_13_4_0_0 edge_13_6_0_0
 edge_13_7_0_0 edge_13_9_0_0 edge_13_11_0_0 edge_13_12_0_0 edge_13_14_0_0
 edge_13_16_0_0 edge_13_18_0_0 edge_13_19_0_0 edge_13_20_0_0 edge_13_21_0_0
 edge_13_22_0_0 edge_13_23_0_0 edge_13_24_0_0 edge_13_25_0_0 edge_14_16_0_0
 edge_14_18_0_0 edge_14_19_0_0 edge_14_21_0_0 edge_16_4_0_0 edge_16_7_0_0
 edge_16_11_0_0 edge_16_13_0_0 edge_16_14_0_0 edge_16_18_0_0 edge_16_19_0_0
 edge_16_20_0_0 edge_16_21_0_0 edge_16_22_0_0 edge_16_23_0_0 edge_16_24_0_0
 edge_16_25_0_0 edge_18_10_0_0 edge_18_14_0_0 edge_18_16_0_0 edge_18_19_0_0
 edge_18_23_0_0 edge_18_24_0_0 edge_19_1_0_0 edge_19_2_0_0 edge_19_3_0_0
 edge_19_6_0_0 edge_19_7_0_0 edge_19_9_0_0 edge_19_12_0_0 edge_19_13_0_0
 edge_19_14_0_0 edge_19_16_0_0 edge_19_18_0_0 edge_19_20_0_0 edge_19_21_0_0
 edge_19_22_0_0 edge_19_23_0_0 edge_19_24_0_0 edge_19_25_0_0 edge_20_3_0_0
 edge_20_14_0_0 edge_20_18_0_0 edge_20_21_0_0 edge_20_22_0_0 edge_20_23_0_0
 edge_20_24_0_0 edge_21_20_0_0 edge_21_22_0_0 edge_21_23_0_0 edge_22_18_0_0
 edge_22_21_0_0 edge_22_23_0_0 edge_22_24_0_0 edge_23_1_0_0 edge_23_3_0_0
 edge_23_8_0_0 edge_23_9_0_0 edge_23_10_0_0 edge_23_18_0_0 edge_23_20_0_0
 edge_23_21_0_0 edge_23_22_0_0 edge_23_24_0_0 edge_24_3_0_0 edge_24_8_0_0
 edge_24_9_0_0 edge_24_13_0_0 edge_24_14_0_0 edge_24_16_0_0 edge_24_20_0_0
 edge_24_21_0_0 edge_24_22_0_0 edge_24_23_0_0 edge_24_25_0_0 edge_25_24_0_0
End
